;symbolic execution tree
(push)
(assert (le x0 java.lang.Object))
(check-sat)
(push)
(assert (le x0 java.util.List))
(check-sat)
(pop)
(push)
(assert (not (le x0 java.util.List)))
(check-sat)
(push)
(assert (le x0 java.util.List))
(check-sat)
(pop)
(push)
(assert (not (le x0 java.util.List)))
(check-sat)
(push)
(assert (le x0 java.util.List))
(check-sat)
(pop)
(push)
(assert (not (le x0 java.util.List)))
(check-sat)
(pop)
(pop)
(push)
(assert (le x0 java.util.List))
(check-sat)
(pop)
(push)
(assert (not (le x0 java.util.List)))
(check-sat)
(push)
(assert (le x0 java.util.List))
(check-sat)
(pop)
(push)
(assert (not (le x0 java.util.List)))
(check-sat)
(pop)
(push)
(assert (le x0 java.util.List))
(check-sat)
(push)
(assert (le x0 java.util.List))
(check-sat)
(pop)
(push)
(assert (not (le x0 java.util.List)))
(check-sat)
(push)
(assert (le x0 java.util.List))
(check-sat)
(pop)
(push)
(assert (not (le x0 java.util.List)))
(check-sat)
(pop)
(pop)
(push)
(assert (le x0 java.util.List))
(check-sat)
(pop)
(push)
(assert (not (le x0 java.util.List)))
(check-sat)
(push)
(assert (le x0 java.util.List))
(check-sat)
(pop)
(push)
(assert (not (le x0 java.util.List)))
(check-sat)
(pop)
(pop)
(pop)
(push)
(assert (not (le x0 java.util.List)))
(check-sat)
(pop)
(push)
(assert (le x0 java.util.List))
(check-sat)
(pop)
(push)
(assert (not (le x0 java.util.List)))
(check-sat)
(pop)
(push)
(assert (le x0 java.util.List))
(check-sat)
(pop)
(push)
(assert (not (le x0 java.util.List)))
(check-sat)
(pop)
(pop)
(push)
(assert (le x0 java.util.List))
(check-sat)
(push)
(assert (le x0 java.util.List))
(check-sat)
(pop)
(push)
(assert (not (le x0 java.util.List)))
(check-sat)
(pop)
(pop)
(push)
(assert (not (le x0 java.util.List)))
(check-sat)
(push)
(assert (le x0 java.util.List))
(check-sat)
(push)
(assert (le x0 java.util.List))
(check-sat)
(pop)
(push)
(assert (not (le x0 java.util.List)))
(check-sat)
(pop)
(pop)
(push)
(assert (not (le x0 java.util.List)))
(check-sat)
(pop)
(pop)
(push)
(assert (le x0 java.util.List))
(check-sat)
(push)
(assert (le x0 java.util.List))
(check-sat)
(pop)
(push)
(assert (not (le x0 java.util.List)))
(check-sat)
(pop)
(push)
(assert (le x0 java.util.List))
(check-sat)
(pop)
(push)
(assert (not (le x0 java.util.List)))
(check-sat)
(pop)
(push)
(assert (le x0 java.util.List))
(check-sat)
(push)
(assert (le x0 java.util.List))
(check-sat)
(pop)
(push)
(assert (not (le x0 java.util.List)))
(check-sat)
(push)
(assert (le x0 java.util.List))
(check-sat)
(pop)
(push)
(assert (not (le x0 java.util.List)))
(check-sat)
(pop)
(push)
(assert (le x0 java.util.List))
(check-sat)
(pop)
(push)
(assert (not (le x0 java.util.List)))
(check-sat)
(pop)
(pop)
(push)
(assert (le x0 java.util.List))
(check-sat)
(pop)
(push)
(assert (not (le x0 java.util.List)))
(check-sat)
(pop)
(push)
(assert (le x0 java.util.List))
(check-sat)
(pop)
(push)
(assert (not (le x0 java.util.List)))
(check-sat)
(pop)
(push)
(assert (le x0 java.util.List))
(check-sat)
(pop)
(push)
(assert (not (le x0 java.util.List)))
(check-sat)
(pop)
(push)
(assert (le x0 java.util.List))
(check-sat)
(push)
(assert (le x0 java.util.List))
(check-sat)
(pop)
(push)
(assert (not (le x0 java.util.List)))
(check-sat)
(pop)
(pop)
(push)
(assert (not (le x0 java.util.List)))
(check-sat)
(pop)
(push)
(assert (le x0 java.util.List))
(check-sat)
(pop)
(push)
(assert (not (le x0 java.util.List)))
(check-sat)
(push)
(assert (le x0 java.util.List))
(check-sat)
(pop)
(push)
(assert (not (le x0 java.util.List)))
(check-sat)
(pop)
(pop)
(push)
(assert (le x0 java.util.List))
(check-sat)
(pop)
(push)
(assert (not (le x0 java.util.List)))
(check-sat)
(push)
(assert (le x0 java.util.List))
(check-sat)
(pop)
(push)
(assert (not (le x0 java.util.List)))
(check-sat)
(pop)
(pop)
(push)
(assert (le x0 java.util.List))
(check-sat)
(pop)
(push)
(assert (not (le x0 java.util.List)))
(check-sat)
(pop)
(pop)
(push)
(assert (not (le x0 java.util.List)))
(check-sat)
(push)
(assert (le x0 java.util.List))
(check-sat)
(pop)
(push)
(assert (not (le x0 java.util.List)))
(check-sat)
(pop)
(pop)
(push)
(assert (le x0 java.util.List))
(check-sat)
(pop)
(push)
(assert (not (le x0 java.util.List)))
(check-sat)
(push)
(assert (le x0 java.util.List))
(check-sat)
(pop)
(push)
(assert (not (le x0 java.util.List)))
(check-sat)
(pop)
(pop)
(push)
(assert (le x0 java.util.List))
(check-sat)
(pop)
(push)
(assert (not (le x0 java.util.List)))
(check-sat)
(pop)
(pop)
(push)
(assert (not (le x0 java.util.List)))
(check-sat)
(push)
(assert (le x0 java.util.List))
(check-sat)
(pop)
(push)
(assert (not (le x0 java.util.List)))
(check-sat)
(pop)
(push)
(assert (le x0 java.util.List))
(check-sat)
(pop)
(push)
(assert (not (le x0 java.util.List)))
(check-sat)
(pop)
(push)
(assert (le x0 java.util.List))
(check-sat)
(pop)
(push)
(assert (not (le x0 java.util.List)))
(check-sat)
(pop)
(pop)
(push)
(assert (le x0 java.util.List))
(check-sat)
(push)
(assert (le x0 java.util.List))
(check-sat)
(pop)
(push)
(assert (not (le x0 java.util.List)))
(check-sat)
(pop)
(push)
(assert (le x0 java.lang.Object))
(check-sat)
(push)
(assert (not (le x0 soot.RefType)))
(check-sat)
(push)
(assert (le x0 java.lang.Object))
(check-sat)
(pop)
(push)
(assert (not (le x0 java.lang.Object)))
(check-sat)
(pop)
(pop)
(push)
(assert (le x0 soot.RefType))
(check-sat)
(push)
(assert (le x0 java.lang.Object))
(check-sat)
(pop)
(push)
(assert (not (le x0 java.lang.Object)))
(check-sat)
(pop)
(pop)
(push)
(assert (not (le x0 soot.RefType)))
(check-sat)
(pop)
(push)
(assert (le x0 soot.RefType))
(check-sat)
(push)
(assert (le x0 java.lang.Object))
(check-sat)
(pop)
(push)
(assert (not (le x0 java.lang.Object)))
(check-sat)
(pop)
(push)
(assert (le x0 java.lang.Object))
(check-sat)
(pop)
(push)
(assert (not (le x0 java.lang.Object)))
(check-sat)
(pop)
(pop)
(pop)
(push)
(assert (not (le x0 java.lang.Object)))
(check-sat)
(push)
(assert (le x0 soot.SootClass))
(check-sat)
(pop)
(push)
(assert (not (le x0 soot.SootClass)))
(check-sat)
(pop)
(push)
(assert (not (le x0 soot.RefType)))
(check-sat)
(push)
(assert (le x0 java.lang.Object))
(check-sat)
(pop)
(push)
(assert (not (le x0 java.lang.Object)))
(check-sat)
(pop)
(pop)
(push)
(assert (le x0 soot.RefType))
(check-sat)
(pop)
(pop)
(pop)
(push)
(assert (not (le x0 java.util.List)))
(check-sat)
(pop)
(push)
(assert (le x0 java.util.List))
(check-sat)
(pop)
(push)
(assert (not (le x0 java.util.List)))
(check-sat)
(push)
(assert (le x0 java.util.List))
(check-sat)
(push)
(assert (le x0 java.util.List))
(check-sat)
(pop)
(push)
(assert (not (le x0 java.util.List)))
(check-sat)
(pop)
(pop)
(push)
(assert (not (le x0 java.util.List)))
(check-sat)
(pop)
(push)
(assert (le x0 java.util.List))
(check-sat)
(pop)
(push)
(assert (not (le x0 java.util.List)))
(check-sat)
(push)
(assert (le x0 java.util.List))
(check-sat)
(push)
(assert (le x0 java.util.List))
(check-sat)
(pop)
(push)
(assert (not (le x0 java.util.List)))
(check-sat)
(pop)
(pop)
(push)
(assert (not (le x0 java.util.List)))
(check-sat)
(pop)
(pop)
(pop)
(push)
(assert (le x0 java.util.List))
(check-sat)
(pop)
(push)
(assert (not (le x0 java.util.List)))
(check-sat)
(pop)
(push)
(assert (le x0 java.util.List))
(check-sat)
(pop)
(push)
(assert (not (le x0 java.util.List)))
(check-sat)
(push)
(assert (le x0 java.util.List))
(check-sat)
(pop)
(push)
(assert (not (le x0 java.util.List)))
(check-sat)
(pop)
(pop)
(push)
(assert (le x0 java.util.List))
(check-sat)
(push)
(assert (le x0 java.util.List))
(check-sat)
(pop)
(push)
(assert (not (le x0 java.util.List)))
(check-sat)
(push)
(assert (le x0 java.util.List))
(check-sat)
(pop)
(push)
(assert (not (le x0 java.util.List)))
(check-sat)
(pop)
(pop)
(pop)
(push)
(assert (not (le x0 java.util.List)))
(check-sat)
(pop)
(push)
(assert (le x0 java.util.List))
(check-sat)
(pop)
(push)
(assert (not (le x0 java.util.List)))
(check-sat)
(pop)
(pop)
